/*********************************************
    * Lab01 - simple
    * Author: Coso
    * Creation Date: Mar, 2019
    *********************************************/
instance_name = "medium_instance_08_simple";

d = 5;
r = 15;

SCj = [350 360 325 304 325];
Dk = [89 60 43 43 79 97 57 58 54 49 100 51 59 97 21];

Cjk = [[44 80 51 83 61 51 85 45 44 45 83 53 41 41 68]
 [87 50 44 59 40 69 61 60 64 72 36 70 73 55 53]
 [45 31 56 41 77 44 53 48 75 72 84 59 84 68 42]
 [83 65 67 70 43 34 37 82 67 79 67 34 86 86 71]
 [43 81 88 39 84 79 61 73 88 78 65 41 50 79 64]];
